
Gurobi 9.1.0 (win64) logging started Fri Jun  4 17:28:37 2021


Gurobi 9.1.0 (win64) logging started Fri Jun  4 17:28:44 2021

Gurobi Optimizer version 9.1.0 build v9.1.0rc0 (win64)
Thread count: 4 physical cores, 8 logical processors, using up to 8 threads
Optimize a model with 74298 rows, 27983 columns and 213984 nonzeros
Model fingerprint: 0x8b333af0
Coefficient statistics:
  Matrix range     [3e-04, 1e+00]
  Objective range  [1e+01, 4e+05]
  Bounds range     [1e+03, 8e+06]
  RHS range        [6e-02, 1e+09]
Presolve removed 8184 rows and 26684 columns
Presolve time: 0.16s

Barrier solved model in 0 iterations and 0.16 seconds
Model is infeasible

User-callback calls 27, time in user-callback 0.00 sec

Gurobi 9.1.0 (win64) logging started Mon Jun  7 12:15:22 2021


Gurobi 9.1.0 (win64) logging started Mon Jun  7 12:15:33 2021

Gurobi Optimizer version 9.1.0 build v9.1.0rc0 (win64)
Thread count: 4 physical cores, 8 logical processors, using up to 8 threads
Optimize a model with 52866 rows, 27983 columns and 164480 nonzeros
Model fingerprint: 0xcd5e30f6
Coefficient statistics:
  Matrix range     [3e-04, 1e+00]
  Objective range  [1e+01, 4e+05]
  Bounds range     [1e+03, 8e+06]
  RHS range        [6e-02, 1e+09]
Presolve removed 52866 rows and 27983 columns
Presolve time: 0.05s
Presolve: All rows and columns removed

Barrier solved model in 0 iterations and 0.05 seconds
Optimal objective 9.53674316e-07

User-callback calls 26, time in user-callback 0.01 sec

Gurobi 9.1.0 (win64) logging started Mon Jun  7 12:19:40 2021


Gurobi 9.1.0 (win64) logging started Mon Jun  7 12:19:50 2021

Gurobi Optimizer version 9.1.0 build v9.1.0rc0 (win64)
Thread count: 4 physical cores, 8 logical processors, using up to 8 threads
Optimize a model with 74298 rows, 27983 columns and 213984 nonzeros
Model fingerprint: 0x8b333af0
Coefficient statistics:
  Matrix range     [3e-04, 1e+00]
  Objective range  [1e+01, 4e+05]
  Bounds range     [1e+03, 8e+06]
  RHS range        [6e-02, 1e+09]
Presolve removed 8184 rows and 26684 columns
Presolve time: 0.19s

Barrier solved model in 0 iterations and 0.19 seconds
Model is infeasible

User-callback calls 27, time in user-callback 0.01 sec

Gurobi 9.1.0 (win64) logging started Tue Jun  8 18:30:53 2021


Gurobi 9.1.0 (win64) logging started Tue Jun  8 18:31:02 2021

Gurobi Optimizer version 9.1.0 build v9.1.0rc0 (win64)
Thread count: 4 physical cores, 8 logical processors, using up to 8 threads
Optimize a model with 74298 rows, 27983 columns and 213064 nonzeros
Model fingerprint: 0x4838f1d8
Coefficient statistics:
  Matrix range     [3e-04, 1e+00]
  Objective range  [1e+01, 4e+05]
  Bounds range     [1e+03, 8e+06]
  RHS range        [6e+00, 1e+09]
Presolve removed 9076 rows and 29107 columns
Presolve time: 0.15s
Presolved: 18907 rows, 45191 columns, 156090 nonzeros
Ordering time: 0.41s

Barrier statistics:
 Dense cols : 2
 Free vars  : 1932
 AA' NZ     : 2.070e+05
 Factor NZ  : 1.591e+06 (roughly 40 MBytes of memory)
 Factor Ops : 2.633e+08 (less than 1 second per iteration)
 Threads    : 4

                  Objective                Residual
Iter       Primal          Dual         Primal    Dual     Compl     Time
   0  -6.16135217e+15  9.53674316e-07  3.25e+07 1.50e+05  1.82e+12     1s
   1  -1.48879605e+15  3.09684509e+14  6.05e+06 3.23e+06  3.10e+11     1s
   2  -7.41358442e+14  3.71796690e+14  2.69e+06 5.84e+05  1.27e+11     1s
   3  -1.38312197e+14  3.44260000e+14  2.49e+05 1.34e+04  1.73e+10     1s
   4  -8.20781119e+12  1.24213036e+14  1.19e+04 1.22e+02  2.48e+09     1s
   5  -2.80034580e+12  1.76749618e+13  4.72e+03 4.45e+00  3.65e+08     1s
   6  -1.08688109e+12  6.97971847e+12  2.28e+03 8.71e+00  1.40e+08     1s
   7  -4.19152347e+11  3.14356625e+12  4.74e+02 3.80e+00  6.06e+07     1s
   8  -6.04374023e+10  5.67230953e+11  2.76e+01 6.02e-01  1.06e+07     1s
   9  -1.19535123e+10  1.20406222e+11  1.66e+00 1.52e-01  2.24e+06     1s
  10   7.18321082e+09  8.85492422e+10  9.28e-01 1.04e-01  1.38e+06     1s
  11   1.26986702e+10  6.71035645e+10  7.11e-01 9.40e-02  9.21e+05     2s
  12   1.91688260e+10  5.43767750e+10  4.53e-01 6.14e-02  5.96e+05     2s
  13   2.22020485e+10  3.96504136e+10  3.15e-01 2.45e-02  2.95e+05     2s
  14   2.39908571e+10  3.56846743e+10  2.21e-01 2.28e-02  1.98e+05     2s
  15   2.52522318e+10  3.34107822e+10  1.54e-01 1.97e-02  1.38e+05     2s
  16   2.56994579e+10  3.20812964e+10  1.30e-01 1.82e-02  1.08e+05     2s
  17   2.59504769e+10  3.13325105e+10  1.16e-01 1.50e-02  9.12e+04     2s
  18   2.60349946e+10  3.11936751e+10  1.11e-01 1.44e-02  8.74e+04     2s
  19   2.62968622e+10  3.04543430e+10  9.57e-02 1.34e-02  7.04e+04     3s
  20   2.63848222e+10  3.00367371e+10  9.03e-02 1.12e-02  6.19e+04     3s
  21   2.65191941e+10  2.95722493e+10  8.25e-02 8.82e-03  5.17e+04     3s
  22   2.66499337e+10  2.94164069e+10  7.58e-02 8.00e-03  4.69e+04     3s
  23   2.67728682e+10  2.93451486e+10  6.88e-02 8.22e-03  4.36e+04     3s
  24   2.69150091e+10  2.91485145e+10  6.09e-02 7.69e-03  3.78e+04     3s
  25   2.70706201e+10  2.90019467e+10  5.14e-02 6.82e-03  3.27e+04     4s
  26   2.71657686e+10  2.89514451e+10  4.60e-02 6.50e-03  3.02e+04     4s
  27   2.72692179e+10  2.88529399e+10  4.00e-02 6.40e-03  2.68e+04     4s
  28   2.73177243e+10  2.88075203e+10  3.71e-02 6.32e-03  2.52e+04     4s
  29   2.73710869e+10  2.87290164e+10  3.40e-02 5.77e-03  2.30e+04     4s
  30   2.74277720e+10  2.86314493e+10  3.08e-02 5.07e-03  2.04e+04     4s
  31   2.75037470e+10  2.85003631e+10  2.67e-02 4.56e-03  1.69e+04     4s
  32   2.75457174e+10  2.84086060e+10  2.37e-02 3.83e-03  1.46e+04     5s
  33   2.76080067e+10  2.82911017e+10  2.05e-02 3.25e-03  1.16e+04     5s
  34   2.76792272e+10  2.82089786e+10  1.60e-02 3.20e-03  8.97e+03     5s
  35   2.77037610e+10  2.81871066e+10  1.45e-02 3.48e-03  8.19e+03     5s
  36   2.77165396e+10  2.81667969e+10  1.37e-02 3.75e-03  7.63e+03     5s
  37   2.77329421e+10  2.81343287e+10  1.27e-02 4.10e-03  6.80e+03     5s
  38   2.77386638e+10  2.81201861e+10  1.23e-02 4.22e-03  6.46e+03     5s
  39   2.77600475e+10  2.80849338e+10  1.08e-02 4.33e-03  5.50e+03     5s
  40   2.77812508e+10  2.80588665e+10  9.46e-03 4.19e-03  4.70e+03     5s
  41   2.77893178e+10  2.80559989e+10  8.89e-03 4.17e-03  4.52e+03     5s
  42   2.77988391e+10  2.80371053e+10  8.24e-03 3.60e-03  4.04e+03     6s
  43   2.78100877e+10  2.80208272e+10  7.39e-03 3.12e-03  3.57e+03     6s
  44   2.78319466e+10  2.80026320e+10  5.77e-03 2.54e-03  2.89e+03     6s
  45   2.78453438e+10  2.79844776e+10  4.80e-03 1.93e-03  2.36e+03     6s
  46   2.78488947e+10  2.79677899e+10  4.53e-03 1.41e-03  2.01e+03     6s
  47   2.78777508e+10  2.79627094e+10  2.47e-03 1.28e-03  1.44e+03     6s
  48   2.78844487e+10  2.79542781e+10  2.00e-03 1.06e-03  1.18e+03     6s
  49   2.78860765e+10  2.79487417e+10  1.88e-03 9.22e-04  1.06e+03     6s
  50   2.78943785e+10  2.79347958e+10  1.25e-03 5.48e-04  6.85e+02     6s
  51   2.78997481e+10  2.79315688e+10  8.38e-04 4.66e-04  5.40e+02     7s
  52   2.79011426e+10  2.79304248e+10  7.36e-04 4.38e-04  4.97e+02     7s
  53   2.79021193e+10  2.79233839e+10  6.60e-04 2.65e-04  3.61e+02     7s
  54   2.79050201e+10  2.79222145e+10  4.53e-04 2.43e-04  2.92e+02     7s
  55   2.79066727e+10  2.79188379e+10  3.24e-04 1.70e-04  2.06e+02     7s
  56   2.79075126e+10  2.79166978e+10  2.63e-04 1.23e-04  1.56e+02     7s
  57   2.79085001e+10  2.79142067e+10  1.89e-04 9.59e-05  9.69e+01     7s
  58   2.79103229e+10  2.79125569e+10  4.90e-05 4.51e-05  3.80e+01     7s
  59   2.79106585e+10  2.79115319e+10  9.67e-05 1.95e-05  1.49e+01     8s
  60   2.79108222e+10  2.79112530e+10  2.45e-03 1.04e-04  7.35e+00     8s
  61   2.79108440e+10  2.79112117e+10  2.13e-03 8.71e-05  6.27e+00     8s
  62   2.79108665e+10  2.79111470e+10  1.79e-03 2.09e-04  4.78e+00     8s
  63   2.79109261e+10  2.79110595e+10  1.00e-03 1.45e-04  2.28e+00     8s
  64   2.79109838e+10  2.79109887e+10  2.15e-04 2.28e-05  8.36e-02     8s
  65   2.79109866e+10  2.79109866e+10  9.36e-07 8.89e-07  3.44e-05     8s
  66   2.79109866e+10  2.79109866e+10  8.63e-06 6.51e-07  2.57e-05     8s

Barrier solved model in 66 iterations and 8.37 seconds
Optimal objective 2.79109866e+10


User-callback calls 1230, time in user-callback 0.01 sec

Gurobi 9.1.0 (win64) logging started Tue Jun  8 18:36:56 2021


Gurobi 9.1.0 (win64) logging started Tue Jun  8 18:37:02 2021

Gurobi Optimizer version 9.1.0 build v9.1.0rc0 (win64)
Thread count: 4 physical cores, 8 logical processors, using up to 8 threads
Optimize a model with 74298 rows, 27983 columns and 213984 nonzeros
Model fingerprint: 0x8b333af0
Coefficient statistics:
  Matrix range     [3e-04, 1e+00]
  Objective range  [1e+01, 4e+05]
  Bounds range     [1e+03, 8e+06]
  RHS range        [6e-02, 1e+09]
Presolve removed 8184 rows and 26684 columns
Presolve time: 0.14s

Barrier solved model in 0 iterations and 0.14 seconds
Model is infeasible

User-callback calls 27, time in user-callback 0.01 sec

Gurobi 9.1.0 (win64) logging started Tue Jun  8 18:53:16 2021


Gurobi 9.1.0 (win64) logging started Tue Jun  8 18:55:01 2021


Gurobi 9.1.0 (win64) logging started Tue Jun  8 19:05:48 2021


Gurobi 9.1.0 (win64) logging started Tue Jun  8 19:05:58 2021

Gurobi Optimizer version 9.1.0 build v9.1.0rc0 (win64)
Thread count: 4 physical cores, 8 logical processors, using up to 8 threads
Optimize a model with 74298 rows, 27983 columns and 213984 nonzeros
Model fingerprint: 0x8b333af0
Coefficient statistics:
  Matrix range     [3e-04, 1e+00]
  Objective range  [1e+01, 4e+05]
  Bounds range     [1e+03, 8e+06]
  RHS range        [6e-02, 1e+09]
Presolve removed 8184 rows and 26684 columns
Presolve time: 0.13s

Barrier solved model in 0 iterations and 0.13 seconds
Model is infeasible

User-callback calls 27, time in user-callback 0.01 sec
